db/data/105722714017209413190508721917828372.z3.out
sat
-------------------
1857.692693343
